Route #1: 50 55 23 7 14
Route #2: 33 42 32 43 26 4 22 12
Route #3: 39 28 60 31 52 57 17 13
Route #4: 44 11 1 16 48 34 9
Route #5: 51 35 18 47 56 27 21 36 29 25
Route #6: 19 53 41 6 20 58
Route #7: 10 2 46 54 5 8 40
Route #8: 24 49 59 45 37 30
Route #9: 15 38 3
Cost 1034
Time 0.147277
